StudentsNr = 10;
InstructorsNr = 34;
DaysNr = 2;
SlotsPerDay = 20;
AvailabilitySlotsLenght = 10;
RoomNr = 2;
ProgrammNr = 2;
DegreeNr = 3;
RolesNr = 4;
CoursesNr = 5;
InstructorsProgramm = [{2}, {1, 2}, {1}, {1}, {1}, {2}, {1}, {1}, {1}, {2}, {1}, {1}, {1}, {1, 2}, {1, 2}, {2}, {1}, {2}, {1}, {2}, {2}, {1}, {1}, {2}, {1, 2}, {2}, {1}, {1, 2}, {1, 2}, {1, 2}, {2}, {1}, {1}, {1, 2}];
InstructorRolesPerProgramm = [|{7, 11, 17, 22, 23, 25, 27, 30, 34}, {5, 8, 9, 14, 23, 29, 32, 33}, {2, 3, 4, 7, 8, 9, 12, 28, 30, 32, 33, 34}, {4, 8, 9, 11, 23, 27, 28, 32, 34}|{16, 20, 25, 26, 30, 31, 34}, {10, 14, 18, 21, 26, 29, 31}, {2, 6, 21, 28, 30, 34}, {1, 10, 24, 26, 28, 34}|];
InstructorsAvailability = [|0, 1, 1, 1, |1, 1, 1, 1, |0, 0, 1, 1, |1, 1, 1, 0, |0, 1, 1, 1, |0, 1, 1, 1, |0, 1, 1, 1, |0, 1, 1, 1, |0, 1, 1, 1, |1, 1, 1, 0, |0, 1, 1, 1, |1, 1, 1, 1, |1, 1, 1, 1, |1, 0, 0, 0, |0, 0, 1, 1, |0, 0, 0, 1, |1, 1, 1, 1, |1, 1, 0, 0, |1, 1, 0, 1, |0, 1, 1, 1, |0, 0, 1, 0, |1, 1, 1, 1, |0, 1, 1, 1, |0, 0, 1, 1, |1, 1, 0, 0, |1, 1, 1, 1, |1, 1, 1, 1, |1, 1, 0, 0, |1, 1, 1, 0, |0, 1, 1, 1, |1, 1, 0, 1, |0, 1, 1, 1, |0, 1, 1, 1, |0, 1, 1, 1|];
StudentsProgramm = [2, 1, 2, 1, 2, 2, 2, 1, 2, 1];
StudentsDegree = [2, 2, 3, 3, 3, 2, 1, 2, 3, 1];
StudentsSupervisorId = [20, 7, 14, 23, 16, 14, 18, 28, 30, 25];
StudentsCourseIds = [{}, {}, {3, 4}, {1, 2}, {1, 2}, {}, {}, {}, {1, 4}, {}];
StudentsAvailability = [|1, 0, 0, 1, |0, 0, 1, 1, |0, 0, 1, 1, |1, 1, 1, 1, |1, 1, 1, 0, |1, 1, 1, 1, |0, 1, 1, 1, |0, 0, 1, 0, |1, 1, 1, 1, |0, 0, 0, 1|];
TheoryticalMinCard = [0, 0, 0, 0, 0, 0, 0, 0, 0, 0];
CoursesInstructorIds = [{3, 5, 10, 12, 20, 28}, {3, 4, 7, 9, 15, 17, 18, 19, 23, 25, 33}, {3, 4, 5, 6, 11, 12, 15, 16, 17, 19, 21, 22, 23, 28, 29, 31, 32, 33}, {1, 2, 7, 8, 9, 10, 13, 16, 17, 18, 20, 23, 26, 28, 29, 30, 31, 32}, {3, 4, 5, 6, 9, 10, 12, 15, 16, 17, 19, 20, 22, 24, 26, 28, 30}];
RolesDemands = [4, 2, 4, 6];
RolesContinuity = [3, 1, 2];
ExamLen = [2, 2, 2, 2, 2, 2, 1, 2, 2, 1];
LunchTsMinLen = 1;
LunchStarts = [10..12, 25..33];
SupervisorAvailable = 0;
OptimalLunchLenght = [3, 1];
OptimalStartTs = [1, 0];
OptimalFinishTs = [2, 20];
MinimizeRooms = 400;
RolesSoftContinuity = [|1, 2, 3, 4|3, 0, 4, 4|];
SameDegreeInRoom = 0;
Mergeability = 1;
